30 4
20 76 21 55 45 51 45 40 55 58 38 32 69 30 63 42 80 56 31 57 27 68 95 70 47 82 67 41 91 10
34 68 11 78 55 94 38 23 78 32 31 75 11 32 96 45 21 88 100 18 66 68 22 21 45 27 43 99 56 19
57 94 78 70 60 81 58 75 11 93 42 96 41 14 19 68 32 14 22 76 51 88 23 32 79 18 43 31 97 61
10 32 22 65 22 43 72 28 33 52 49 16 43 20 87 14 78 33 41 32 27 63 69 77 90 17 57 30 92 28
